c 3cnf formula
p cnf 60 273
-31 -41 -21
-53 -46 3
20 -28 41
-7 4 11
57 38 -36
-45 -50 51
-57 52 14
-54 28 31
20 -21 31
-36 -22 50
58 45 5
-47 -43 19
31 26 -22
8 -13 27
5 -57 -36
7 -11 25
59 -15 49
-2 -19 -25
28 6 -14
6 31 -57
-14 21 30
48 42 -24
40 -9 24
41 -28 -5
-60 -35 59
21 38 6
43 8 -12
-56 -40 18
49 59 29
19 43 -7
-39 33 34
-52 6 20
45 -28 31
-44 34 -13
5 -52 -28
37 42 48
35 -29 -15
9 -37 49
14 36 38
44 -17 4
22 -51 -26
34 -13 7
-59 29 -46
-20 -58 -30
18 10 -9
55 -34 -4
26 -20 57
-47 -25 55
20 -21 38
-19 -16 43
-5 31 30
-33 2 -8
24 29 -23
31 -45 30
-4 16 -43
53 -56 40
27 32 -13
40 60 -46
-32 -34 17
-57 50 28
48 18 -56
33 -25 43
-16 -32 -13
29 -40 -37
-12 13 25
33 7 -11
-44 7 43
-60 42 48
43 -34 -32
27 -44 34
38 22 -30
1 49 -18
-31 -54 45
-1 37 42
-17 -25 16
-48 46 10
43 -8 44
2 -55 -16
28 -57 -21
-52 50 -20
-31 22 -58
9 3 -15
10 56 -53
48 9 -24
56 -59 -42
-24 -23 -1
-1 -10 24
-53 -3 -49
29 53 37
57 5 -31
21 -20 -5
4 -12 -13
-24 -18 56
-42 48 -53
-55 -7 -8
-29 -3 60
29 3 53
29 9 35
15 -35 40
52 -26 -21
37 23 48
22 21 -50
24 10 59
49 -53 3
-26 51 -45
-20 -31 52
31 -6 20
32 -8 16
-57 -22 -50
-33 4 -2
-1 42 9
44 19 39
-31 -21 41
6 51 -30
48 15 10
-54 21 6
24 -9 -3
-19 -33 -7
-25 16 2
31 -28 -51
26 -20 -38
-14 -6 26
44 17 -19
50 6 -41
-13 33 -43
-32 -43 -27
-34 12 -55
-8 -34 -17
19 7 -13
10 53 42
34 2 -44
10 23 -46
-48 42 -56
29 10 -53
11 33 -27
-37 -24 -46
43 -47 39
52 -22 26
9 -3 15
-28 58 -6
25 4 -12
34 -19 -11
-45 14 -57
-54 -36 -21
44 11 43
20 -30 -28
-43 25 11
-31 58 14
1 -59 49
23 -37 -46
-47 -19 -12
-18 35 29
-3 1 -53
-58 45 -51
-12 47 -44
50 -28 6
-29 24 49
-10 -42 35
24 48 35
7 55 13
41 28 30
20 -14 -36
54 50 -41
-42 15 -49
30 22 31
51 5 -54
-36 -58 -51
-33 39 27
21 6 -5
21 -31 -6
47 2 -13
35 -9 -56
59 42 53
-14 -26 20
-47 33 -8
-21 -54 26
-60 29 37
-14 6 30
13 17 -43
-5 -26 14
19 34 -44
13 -55 -8
-53 18 49
39 16 11
47 33 -34
-35 3 -42
6 31 26
-34 -39 -33
9 49 -24
-14 -38 51
14 -45 -28
-40 -1 -9
18 -56 -53
59 -37 -53
8 -17 -7
-53 -9 -56
17 44 -19
-6 57 28
-37 24 23
-28 26 57
58 -21 -26
41 31 -51
-46 24 -59
-32 -55 4
48 -60 -18
37 46 -10
26 50 41
28 20 31
-37 46 -10
49 24 42
56 -40 -3
-43 7 -33
36 22 -52
-4 32 39
-18 -60 35
52 -31 54
57 -20 -36
37 -18 35
37 -23 -15
-53 42 60
15 40 -24
39 8 -43
40 -3 -24
-33 16 -34
17 -32 -39
-32 -43 44
-5 -52 -57
-47 13 43
-26 -28 -6
33 -16 12
31 -54 45
12 7 19
-41 -6 -38
-31 -52 -45
10 -53 49
1 -56 49
-53 -1 -24
-29 46 24
-19 7 -32
-35 -46 49
-55 -13 12
-59 -23 -3
-4 -44 11
-27 -11 -16
55 2 -33
43 -33 -17
-25 -33 -17
-32 34 -17
11 32 33
9 -42 -49
20 50 22
-28 -41 -52
49 -37 -18
16 44 -25
-8 -34 -25
5 38 -51
-11 -33 44
2 -27 -34
-21 54 -38
-25 43 -4
15 49 48
8 -19 34
-24 56 42
44 39 -43
29 1 -48
10 -53 -24
-21 36 -30
-38 -36 54
-19 -32 -4
-20 50 41
-16 -2 -32
10 18 -15
2 -7 39
