c 3cnf formula
p cnf 60 273
-54 -10 59
-25 22 48
-53 27 21
-15 31 -14
-30 -52 -9
-4 47 -10
-60 11 -3
-2 -56 -6
53 16 43
-24 -18 -32
20 -27 -46
-6 29 42
51 19 -56
38 39 -34
-28 -50 -17
58 -57 -37
1 -52 58
28 30 37
-58 -52 -37
44 17 -58
-32 8 -24
-56 -59 10
-41 -14 40
11 -36 -24
59 -51 -47
33 47 23
41 -50 -25
-19 -47 -49
-50 -44 1
54 29 -34
42 -4 51
-6 -56 38
4 -47 -38
-26 8 -55
31 22 40
46 -7 -60
42 -35 56
21 -7 20
-35 19 59
-28 -48 -12
29 10 59
26 60 -24
27 -18 -3
56 -42 4
-37 -58 -12
32 53 55
28 -41 -52
22 -57 -41
11 16 3
18 16 26
29 -42 -38
46 43 -20
31 9 15
19 23 -4
49 29 -10
18 46 -43
50 -58 -9
-30 25 -15
-21 8 -13
-47 -29 54
-24 -7 11
-13 -60 24
48 28 15
45 11 -26
12 -31 -37
26 -43 36
-41 -48 -40
35 6 -47
-13 -46 7
48 -9 -17
28 -41 58
-57 41 1
54 -51 -23
28 9 50
-34 4 39
26 -60 45
-34 -4 49
17 -58 14
-46 -36 27
37 -1 12
-43 -32 -60
-8 16 -18
-5 2 -23
-16 -8 -18
13 -20 -26
-37 -58 -52
-5 38 39
57 -44 40
38 5 10
-39 -35 5
-30 31 -44
28 -57 44
60 -45 -13
-29 -38 59
59 23 29
29 56 -5
10 -33 -39
-56 54 -49
-29 -35 -6
29 34 -49
1 41 9
-25 -58 -17
13 53 24
-20 60 -26
-17 -31 -50
47 10 -35
6 -29 4
48 -30 -12
38 59 23
-30 22 1
58 17 -52
29 4 -33
-55 7 -3
-27 3 21
-50 -58 -25
-25 -17 14
29 -4 -35
-33 -54 -35
1 9 -41
27 -45 20
11 -26 -20
34 -10 33
-20 46 27
25 -30 -1
34 6 -39
-20 -7 8
-17 -50 -28
37 -1 15
53 -8 -43
-25 52 -57
49 -42 -6
3 -53 8
49 59 -23
-36 24 -16
52 -15 -48
9 -12 -15
-1 -9 50
-16 -55 36
6 33 -34
51 34 47
-50 -52 -58
-31 41 57
-31 41 52
15 -57 -50
26 53 36
-5 -34 -29
32 36 -24
-13 -21 -32
-36 53 -21
-32 -53 -3
17 -41 -22
-58 30 -50
6 -59 2
-49 -54 59
51 -49 -54
-22 -41 44
42 -19 51
20 -18 -32
-21 3 -26
-45 -13 -20
2 -47 33
-22 -40 -14
3 -32 -43
-32 7 53
51 -34 6
13 -45 18
6 47 33
10 -39 -6
19 4 35
58 -57 -44
-60 -55 -53
24 32 -36
17 -22 25
25 9 -30
-38 -49 -19
17 -48 40
34 -51 29
-5 -29 23
-41 40 -37
-18 -36 45
19 29 47
-9 -30 25
-5 33 -4
-20 -32 7
51 -5 19
35 -59 -39
-5 -34 -6
28 -9 -12
-26 -18 60
34 -47 39
-6 -59 -35
22 -15 14
57 41 -22
-44 -14 -17
-46 53 21
-29 39 -34
-8 -24 20
-39 35 -54
4 10 -19
-37 -15 -25
17 41 44
25 -22 -14
42 -56 -35
26 -3 11
-1 -12 -57
28 -50 -57
-50 -22 57
27 -43 3
-32 18 -26
1 -28 52
-19 51 -6
2 34 42
14 -57 -50
3 32 20
11 53 13
24 -3 18
10 -4 -59
-26 43 20
-17 14 50
13 55 7
45 -55 43
-4 -38 -2
-59 -51 -38
22 -58 -31
4 34 2
11 -8 60
-19 -42 -5
32 -3 -8
33 -59 -5
33 -54 -2
16 -55 -8
-49 59 47
-26 18 -7
45 13 -27
-24 -32 -8
58 -25 -37
-6 54 -2
-50 9 -57
13 45 60
32 45 -8
-55 -11 21
-8 24 16
1 -12 -15
-36 -3 -13
-22 -37 44
46 -55 21
45 -43 53
30 -15 -25
21 -24 7
-35 -42 -47
-38 -39 -59
52 25 -12
56 -49 2
14 -57 -37
9 40 52
-35 -2 -6
-22 -28 -52
27 -45 8
-11 13 -55
8 -36 55
-58 -30 50
20 -8 -36
-55 45 16
-14 -41 -25
20 24 -43
24 53 -32
50 28 -44
-47 -6 -59
22 9 57
4 23 19
-42 33 39
55 11 -16
-30 41 44
