c 3cnf formula
p cnf 60 273
-29 53 38
49 -23 -1
52 -35 -33
48 56 12
-33 -58 28
-25 -11 34
21 45 27
16 31 -41
12 52 50
-48 39 33
-33 -5 58
-37 33 19
-31 -27 40
-49 -57 -8
-58 33 26
-55 -11 7
27 -36 46
26 -5 9
-56 -48 -12
-4 -1 -42
-57 49 -13
45 -40 36
-6 -40 16
12 50 -28
49 -17 -13
-9 -28 -26
60 -53 13
-13 -23 -60
-8 -43 -13
-43 -24 57
-44 1 -8
30 -50 19
1 -38 20
9 15 -12
-57 -1 29
56 -58 5
11 51 -55
-18 27 -31
7 -40 -31
31 -40 6
-17 -60 20
-44 23 -24
29 20 -3
9 48 -52
15 -28 26
59 -46 16
24 29 57
44 57 3
42 60 43
-59 55 27
-24 -8 -42
-36 40 -54
10 34 -7
-4 3 -57
-50 37 56
-41 51 10
49 -13 14
-40 55 -51
-25 -41 16
46 54 36
44 57 -23
-15 -35 26
-4 -24 -29
58 48 9
24 53 44
-18 6 34
-9 -50 22
12 -39 -48
-54 41 10
51 -18 10
26 28 -9
-46 -59 41
17 53 -4
-24 -49 -57
-49 3 53
-57 60 -17
-29 20 -47
13 24 -1
22 -12 50
14 -38 49
-41 -46 27
-25 -40 -54
-35 -26 58
-41 -36 54
-9 -56 -37
-42 -4 -17
37 32 -2
59 40 -54
-30 37 9
-54 11 -59
-14 23 -57
-21 -41 51
-38 -20 1
6 16 36
5 -9 -19
48 37 -30
48 -30 -56
14 -42 4
32 -26 -50
18 41 -21
-11 -27 -21
43 14 -49
40 -6 -16
33 56 32
8 -60 29
14 -13 -3
-9 39 50
-35 5 12
-37 52 15
6 59 45
-10 -16 41
-24 -4 49
31 -46 -7
-40 -16 -36
22 5 37
59 25 45
20 8 49
-16 36 59
29 -8 13
-43 -44 -20
-6 -54 16
36 7 41
-31 -41 -21
-49 20 3
25 31 54
-38 60 -24
-59 16 -54
-35 28 52
-4 3 38
-50 48 -15
-25 -7 -18
-18 -27 46
-58 9 -39
52 56 -12
-40 -10 41
-3 -1 -20
8 24 -49
-16 -59 -36
5 33 -22
-10 46 31
24 17 -29
11 -36 7
14 53 1
-47 -29 42
9 33 26
55 41 51
53 47 -49
-49 8 -3
-34 21 11
-21 -31 -6
-45 -31 18
32 -39 -26
52 -19 -15
-56 -26 35
-47 38 -57
-28 58 37
-57 14 -38
-55 45 -27
-1 -29 -43
33 37 58
-4 -44 -43
-2 -33 12
-45 11 -46
-53 13 -44
-36 -55 45
-6 54 45
-5 33 50
-27 -54 36
-4 -29 -57
-52 -50 -26
-19 -2 -35
40 41 -46
3 47 -17
-13 42 8
36 11 16
4 60 38
42 60 38
44 -57 -8
52 48 -2
-13 -43 42
-32 -50 19
16 -7 -40
-10 34 51
23 -44 -20
-31 27 -41
-49 -14 57
58 -50 26
1 -24 -13
28 -9 -12
-11 7 -27
5 -22 52
56 19 -58
25 -46 -54
-44 47 38
-60 14 -44
57 -38 17
15 -30 -22
58 5 -32
-37 19 -9
-26 -9 -32
14 44 17
32 -2 22
-8 -53 4
-29 -53 4
-1 -57 -20
-12 15 19
44 8 -20
9 -28 50
36 -11 -6
9 -22 -32
-4 17 14
56 15 33
21 -18 -41
-10 27 45
6 -7 -54
-21 27 -41
24 49 43
53 13 -8
51 -10 -27
-26 30 -37
26 -19 -30
23 -1 42
-18 -27 -59
-13 1 -3
-14 -43 8
-51 21 -18
48 9 37
16 21 6
-11 46 7
6 -55 -25
-36 -10 31
-60 -1 -43
-38 24 -42
-3 -13 -43
32 12 9
-15 -5 -50
32 -2 37
-18 54 59
6 41 -45
9 -32 -56
56 -19 -52
-39 12 -15
-1 -17 47
-51 45 10
5 33 -58
12 39 9
-48 -12 2
-11 -21 -54
-18 16 -25
7 21 -46
9 58 56
-47 -13 -14
-12 -28 39
28 -52 19
24 42 49
22 2 -26
51 -7 -18
-19 -9 -32
51 21 -31
-26 22 -12
-36 -34 11
19 15 -28
53 42 24
28 -33 15
-16 7 -31
24 -44 14
32 -2 -22
-24 3 -42
-10 -21 -45
-7 45 -25
-15 9 19
35 28 -12
58 -56 35
