c 3cnf formula
p cnf 60 273
-5 51 41
-31 50 -37
25 -38 -58
-27 -21 -18
41 6 5
29 14 -6
-7 5 -36
-37 -39 58
30 -16 -32
-54 40 60
5 -6 -59
19 -5 -20
-8 53 35
-54 -17 -33
16 18 -35
-1 35 -11
4 -20 -49
43 31 -54
1 -23 -16
-57 43 -38
-4 29 -41
28 60 -37
38 10 -50
-34 -14 49
1 -16 -44
44 -9 -52
-30 -16 -22
-16 -21 47
31 -28 -48
11 -52 27
13 41 19
6 15 -34
-48 40 -60
35 -8 53
-58 55 60
34 45 41
-49 15 7
9 -26 -35
-6 3 59
24 -57 54
24 -33 -50
32 16 27
-28 58 -39
-26 -21 -47
-49 -46 -59
35 32 -26
-16 47 11
12 -26 47
35 26 -30
-23 8 -2
-53 22 -16
19 51 49
2 -44 9
-54 55 -43
-54 17 31
-36 46 34
15 -14 -19
50 42 -37
-48 57 42
18 12 52
23 11 53
58 10 31
-48 42 39
-12 2 -27
-36 -45 49
-33 40 37
-25 17 10
50 -24 -31
32 -12 -53
34 36 59
-54 55 -43
-55 -54 17
9 -44 1
-47 -53 -12
-56 -6 -34
-50 57 -60
4 14 13
-56 46 3
34 20 56
-57 40 60
-59 45 -14
52 21 -8
35 -26 11
-31 60 -55
-22 1 -2
34 -19 -6
53 -22 30
42 58 10
8 -1 32
38 48 25
-60 -10 -37
-14 3 -7
17 -48 40
-44 -27 -23
15 -5 46
-24 43 -39
14 -34 56
28 -43 -40
50 -48 17
40 50 58
3 51 -36
55 -43 39
-19 5 29
53 -23 -47
41 46 14
47 27 8
56 -7 -36
-56 -15 6
34 -29 46
39 57 -25
-30 47 -52
9 1 26
-37 57 38
13 5 -46
60 43 -57
21 -26 44
-15 -19 -51
1 52 22
4 59 46
27 -1 2
53 -26 12
36 -4 19
31 33 54
-22 -47 52
11 53 32
-2 30 27
-38 42 57
-42 -58 54
-17 43 42
-14 -36 -41
-12 -52 -1
-39 -40 31
54 -38 -57
46 45 5
35 1 -18
58 28 24
16 -9 -35
55 -33 -50
-18 -9 21
10 58 55
28 31 33
-26 -16 -8
39 -38 57
-16 30 -18
43 -42 -55
9 -30 8
-31 57 17
-50 -33 -24
7 -15 14
-35 26 44
6 45 29
-21 -53 2
-36 -20 46
-51 13 -3
-14 -49 20
48 17 -57
-47 26 -21
-59 36 -15
24 37 25
25 -55 -42
-44 53 -16
27 9 -12
-17 -55 38
-29 19 36
-43 24 -25
9 -21 -11
6 45 -34
12 -23 22
-22 -12 52
-10 31 -43
-57 -40 -48
-34 -49 15
-21 8 -22
-19 56 6
6 49 14
-23 -52 8
44 -53 -47
-39 43 -57
5 -14 29
-29 46 20
40 -42 -50
1 -52 -16
-26 -47 16
-53 12 52
-27 11 -18
-58 -55 -24
-21 -44 -8
-22 -32 47
-17 -24 55
13 41 15
15 -6 -36
-45 -15 -3
17 40 60
60 58 25
-15 19 14
34 36 4
37 -55 -50
53 -18 12
-6 19 -5
50 -31 -28
-48 -58 17
-2 1 32
54 48 43
-47 23 -44
57 37 58
22 9 1
-57 50 58
36 15 45
-60 -54 57
-57 10 60
38 -33 -39
46 7 -41
11 -2 32
-19 14 49
-51 7 -59
-29 -5 14
-57 -40 -58
24 -39 -55
37 -54 58
44 -22 -16
-49 -7 3
-32 -2 -35
53 -16 27
-32 2 18
-40 48 -42
14 -36 -51
31 60 -38
13 20 34
29 4 -15
19 41 49
45 34 5
46 -51 36
-20 46 45
-1 -8 -2
-34 19 -36
38 57 -48
13 36 -15
46 -6 -59
-5 34 20
-39 57 -10
39 31 -50
27 30 -26
-10 37 17
-59 -49 -3
-29 49 51
-7 59 45
-51 7 59
-59 13 -51
-49 -59 29
-19 46 14
-56 51 -19
46 14 -29
52 9 -44
-27 -1 -22
-1 8 -9
-49 15 -51
-19 29 7
-33 39 57
29 -20 56
10 39 -50
51 7 -41
44 35 9
-32 16 26
57 -37 28
-55 60 -39
21 -26 -30
21 -2 23
16 -12 -21
30 -35 -12
-47 -53 -32
59 20 15
28 25 10
53 -1 11
