c 3cnf formula
p cnf 60 273
26 -4 -52
51 31 -38
-43 -25 -57
8 6 -7
-11 -12 -30
19 -4 -10
-46 43 -40
-23 -28 -35
-14 -54 32
39 11 5
54 -36 -21
-29 58 44
-20 14 54
55 -7 -43
34 -19 32
16 1 -38
45 -9 -15
28 -18 30
9 -22 -11
54 33 26
39 18 -58
-19 -52 -54
44 22 53
-14 42 -32
-25 -55 -24
36 -48 -52
-16 -25 -57
-29 30 -45
-5 29 -35
-46 -1 -38
5 39 60
4 47 -32
-16 40 -57
12 -60 11
26 34 -36
-60 35 -5
44 -2 -5
9 53 2
-19 -47 32
-18 -53 -5
-21 41 36
57 40 1
-13 -51 -57
60 -35 9
-8 27 -49
20 19 59
31 -40 8
51 -50 6
-26 -42 36
44 -28 35
19 59 37
20 41 -48
21 -42 -36
-23 15 35
-19 10 33
-23 -35 -2
14 -41 -21
-57 38 -55
-15 2 60
-53 -23 28
11 -28 53
-56 29 35
39 56 -58
-14 -21 -17
21 -26 -47
42 -36 -26
27 51 38
-54 -20 14
13 3 -24
-23 -56 -60
-59 -10 -17
-28 -23 18
27 -24 7
21 26 48
-27 -55 -43
7 -16 25
59 -48 -4
-32 -47 52
-36 32 -19
16 -3 57
-8 -1 13
45 -39 -56
-44 53 -9
-33 4 -21
21 -48 33
24 -38 -43
-10 14 -19
-30 -11 2
16 -6 43
34 -32 -59
7 -51 -57
4 59 -32
56 28 45
10 -37 -26
39 -28 -30
21 -48 54
26 -54 19
2 -12 60
-54 -21 -10
-18 -30 -56
-35 -60 -30
56 -30 39
-60 53 -18
-47 -48 -34
-60 -44 15
-41 48 37
35 -60 -9
-9 -44 -5
40 6 31
-31 24 -50
-1 27 -43
-19 -52 -41
54 -36 -47
-50 55 -16
-36 19 -59
37 -36 47
-28 -12 29
-47 -4 19
58 -5 15
-29 39 28
23 -45 -29
-54 20 48
-17 26 47
52 32 34
21 36 -42
34 -4 32
58 -53 35
8 -13 -6
51 -6 3
32 14 -48
-40 8 31
-49 16 27
57 25 55
-51 -8 6
-5 -23 -45
-38 -16 8
41 36 -10
-24 -6 1
-55 -49 -8
36 -17 -4
-2 -58 18
-37 -59 -54
-9 -53 -56
-43 -57 -55
25 -38 27
31 27 50
31 7 43
11 -44 60
8 -25 3
29 22 9
-3 -31 24
-10 32 -21
2 -30 -9
40 46 57
-47 4 -33
-55 49 16
15 58 -29
-19 48 -32
7 -40 43
54 42 -59
60 -5 -45
-43 -51 49
3 27 -51
38 16 31
51 -40 1
-23 -45 22
16 49 51
-27 51 -50
8 -24 57
58 -35 -28
-30 29 -22
48 20 -17
-45 -2 -11
40 3 -24
-3 -57 -8
-3 16 -8
56 60 18
-51 -25 -57
-25 51 27
56 -44 30
2 5 -23
-26 -37 4
19 21 -14
-55 46 8
-5 44 -60
-53 -44 -45
47 42 48
18 -30 -28
51 46 -1
-54 32 -20
26 -14 37
22 -12 44
-18 -22 44
-14 4 20
-1 -38 -6
5 9 29
-26 33 -20
-6 46 31
6 -24 3
-48 -54 -14
38 -1 25
-21 -52 -34
18 30 -44
2 30 11
-12 -44 15
10 37 -52
60 -45 -28
-24 -31 -7
59 32 -4
-24 40 -27
-22 -53 60
-49 8 6
-17 -26 -10
3 -43 -7
39 -58 -22
-10 -41 21
-2 -28 -44
-32 48 -10
-39 60 -29
20 -36 37
29 35 58
23 53 29
19 21 41
-2 53 12
-44 15 -60
26 -42 33
8 -1 16
-46 -43 3
-35 28 -39
-56 -15 39
44 28 60
-13 8 51
14 19 -41
8 27 -55
17 -37 -33
46 7 40
23 -11 18
-25 -40 51
-41 36 -20
-17 47 -41
-41 -59 -37
3 -46 24
-50 -8 -1
-1 -27 43
-17 26 36
-34 -41 -42
11 12 -39
25 43 55
33 -20 -54
-27 38 16
-6 1 50
5 -60 35
39 30 28
6 -40 -50
13 -46 -7
41 -52 -37
52 -26 -41
-53 39 35
4 -14 -59
52 -4 -17
38 -49 -3
8 -16 -49
-18 -56 60
4 -52 -32
-59 33 -54
8 -3 -40
-18 45 -56
-31 46 -55
43 25 7
-30 -23 12
29 11 28
-51 13 -27
49 7 -38
