c 3cnf formula
p cnf 60 273
34 -7 47
-39 52 -44
-19 -7 -59
29 30 -5
-14 17 54
-42 -5 -53
-38 52 26
-8 -19 60
21 19 37
-25 -12 33
-29 11 15
-22 26 3
44 6 -38
-39 50 6
-6 17 52
10 24 -29
-13 28 15
-45 49 -5
-38 -26 -39
-18 -55 -50
5 42 -40
24 -51 -53
19 -37 47
-53 15 -24
-5 -16 -23
-3 27 -17
-27 38 -56
16 28 10
36 2 47
-32 50 17
40 42 -13
-59 -33 -12
54 6 -44
-48 -40 -15
-5 16 53
-60 20 -4
20 -60 -8
-31 54 6
-8 57 -60
19 -60 -12
-29 15 24
23 -5 -15
-59 -47 -41
-40 -42 -49
-20 -8 -37
38 39 44
58 -23 49
4 -59 36
20 -25 36
-33 34 60
28 -40 11
1 31 39
32 3 -14
-31 -55 14
21 47 59
-29 40 -53
-10 51 11
-19 57 -2
7 60 19
6 44 55
-28 10 51
16 -48 13
-24 42 -13
16 15 5
-52 -1 54
16 42 -11
-52 -27 6
-30 -15 53
30 -13 -11
-1 55 14
-43 57 -12
-25 -47 19
51 -9 28
51 -45 -15
47 2 12
-37 25 -7
-60 -47 -4
-39 -52 -18
45 -28 -23
18 3 52
-36 7 2
-17 18 55
-59 7 -43
-30 -42 9
16 -24 -11
52 17 -32
22 17 -35
-37 20 7
44 -27 6
-15 51 -45
36 -46 -59
-25 20 34
-43 19 57
59 -25 4
53 13 -45
-21 47 7
-34 -4 47
20 2 36
-41 -8 -34
-56 -22 39
-49 9 48
38 -27 -1
36 -21 46
-25 7 19
9 -16 -28
-20 60 -34
39 35 -14
-57 47 46
56 -55 27
-25 59 43
-29 48 28
19 43 -20
-18 22 6
11 10 -42
56 50 -3
-35 -50 56
-48 49 -51
9 51 11
-27 26 3
-50 6 44
-40 -30 -51
-32 -31 -18
-12 47 46
-35 52 -6
14 -56 44
55 50 -38
-39 55 -18
36 -4 47
60 -36 41
-47 36 -34
50 35 -38
-47 -25 -20
6 35 -31
-41 -8 60
-60 43 34
-34 -7 21
-21 36 43
-30 16 28
3 -17 14
47 37 19
18 39 -31
46 -47 37
53 13 42
15 10 16
22 54 50
51 -42 15
6 18 22
-56 6 27
12 21 -57
-45 58 23
60 37 -43
-32 -52 54
33 -8 -34
-9 -53 48
29 -16 -13
31 -39 1
2 59 19
58 -45 40
3 35 -17
-14 -50 38
-53 40 -13
14 -1 32
-11 40 -42
52 55 32
-48 10 42
32 52 -35
-11 -24 15
-13 -48 15
48 40 9
18 -56 35
-55 -56 1
29 11 -45
46 -36 -25
-27 -14 -52
12 -47 43
-37 -60 -33
-27 -52 1
-16 -48 13
-4 -33 -59
60 -2 4
51 -23 13
-41 -59 2
32 -31 22
36 59 37
20 41 -12
-58 15 10
45 -42 -51
20 60 25
-40 30 -45
44 32 55
-15 24 58
43 57 -34
41 -59 34
-14 -6 -44
44 14 -32
-38 14 -39
31 27 -55
6 44 27
-40 -23 -10
24 29 -15
36 -25 -21
-33 37 36
16 -13 48
-55 1 54
21 57 8
22 56 26
13 -9 -28
57 25 -8
-35 -54 -1
-1 52 -3
-22 18 38
13 30 48
-45 -15 13
-58 29 -49
-5 -28 51
26 44 3
-55 -54 -1
49 5 -11
-58 24 49
4 2 -34
28 9 16
-55 22 -6
-37 -12 -7
-5 15 -10
52 38 54
-52 -35 -18
48 -23 28
-42 -51 10
18 -1 26
52 27 44
-17 56 -32
-22 39 -1
-19 7 -43
28 -16 24
21 -33 -12
-15 48 58
-19 46 60
-44 39 -56
8 12 19
33 -37 19
27 1 -54
-36 -47 -8
40 49 -58
-46 34 -57
-36 -2 60
1 18 -3
-15 51 11
9 40 15
45 49 -29
-27 -54 32
-49 15 45
55 -38 44
45 -15 29
-25 -8 -59
53 48 10
-11 -40 -10
15 49 11
-5 45 -49
10 -29 -51
-43 47 33
55 -3 35
47 -59 33
25 60 -47
-17 -1 -18
-52 31 -56
-20 2 -59
-27 -35 26
-9 5 -51
19 -43 25
-41 47 -4
-59 37 -36
-19 -2 -12
-50 -38 -3
