c 3cnf formula
p cnf 60 273
-17 -60 -31
-9 34 14
41 -14 -8
-36 54 -55
8 56 -32
-19 -39 -5
-12 -48 59
16 -48 -29
-26 44 -49
24 37 26
-12 47 -20
-37 19 49
-26 -7 52
-17 -51 2
-55 57 -45
-40 -23 46
-3 -33 -16
38 28 -5
17 32 -51
-34 43 4
44 26 39
59 -45 15
-33 48 -3
1 -19 37
20 -23 33
26 -53 44
6 -9 8
-29 59 40
60 -22 31
-47 23 33
-43 58 -25
38 19 52
30 -46 59
-6 13 34
-39 37 5
10 -45 23
42 -18 -50
-14 -4 -13
46 57 10
23 -57 59
-17 58 -34
53 -52 -38
-19 -1 -44
-12 59 -48
-19 53 -5
31 -9 60
32 -17 -2
58 -32 41
-31 14 -4
-44 -53 39
-27 35 49
54 59 -46
35 39 1
-14 -56 31
31 60 -58
38 -5 -28
-22 -25 -43
56 -8 -60
2 -41 31
-4 -60 41
60 -58 -17
8 9 41
-33 57 -48
53 -28 7
-8 -60 14
-45 -54 15
-57 48 15
-40 54 -10
-22 43 -14
36 40 -57
22 32 -56
-23 -54 -40
-49 35 38
59 33 46
-56 -25 -34
-19 37 -27
4 -8 -9
22 -21 60
-22 -56 14
-6 -14 -17
37 -5 -39
-34 -17 2
22 -8 -21
-38 -35 -42
23 40 -55
7 -19 -35
39 -26 -18
20 55 -30
35 27 -5
3 48 -10
-39 26 -53
-9 -41 -25
48 -23 -29
2 -58 60
38 -1 -24
26 -35 -27
-31 60 56
59 48 15
-38 18 -11
14 -6 34
33 20 59
-32 -4 -8
44 52 1
-32 25 4
-52 26 -18
-48 55 30
30 -48 -40
-20 -47 -30
-52 -18 -37
-1 24 -35
16 -55 -45
30 -12 -10
-46 -57 -29
19 -24 -38
7 -1 -39
-24 -53 19
43 -4 56
28 19 -53
-54 -3 -45
13 -43 -22
-17 13 -51
-3 -16 36
-53 -35 5
-12 -10 -23
-51 -34 -4
1 26 -52
-6 -2 13
-2 31 -6
43 60 8
11 49 44
-17 -41 6
-60 21 2
49 18 -28
37 -28 53
-29 30 -55
-60 25 58
34 -9 -17
54 48 -33
54 -20 -47
19 42 44
-29 15 55
-50 24 7
14 -13 31
60 -8 6
-55 -12 -36
43 9 -21
34 -2 -17
25 21 14
-12 -10 -47
52 53 -27
-54 -36 30
28 -1 -5
-23 36 54
32 31 -51
60 34 41
-16 20 -33
3 -15 33
45 23 10
58 32 34
19 -28 18
13 9 -17
-43 -8 -31
15 -33 48
30 33 -3
-4 56 -34
-35 5 24
-6 31 34
45 57 -3
-12 40 -15
-36 55 23
58 60 34
44 24 53
-22 58 -41
33 -29 -45
-52 18 37
-47 40 -45
5 -44 -38
-37 -1 11
59 -15 -16
10 48 -30
35 -49 -27
-60 -34 -8
-10 -30 -54
55 16 10
-23 59 -16
18 -50 53
16 47 57
-49 11 53
22 -31 41
-1 -26 -28
-53 -24 -11
-40 -48 57
-52 42 26
33 47 -57
-56 -41 43
15 23 -48
54 -45 48
-12 10 54
-28 50 18
-25 41 -21
21 31 58
14 4 41
-46 -3 -12
37 -7 -50
-31 -14 -34
-38 -5 37
19 53 -11
-45 20 -29
-33 29 30
3 36 -46
-26 1 -38
-2 -21 -25
24 44 37
-45 -54 57
18 -5 -42
50 35 -39
-7 -35 -18
33 -3 46
-6 13 4
15 45 -12
25 -17 -34
-4 41 -13
-54 10 -16
-2 -6 17
-18 -49 7
51 -8 -34
25 14 -56
42 -50 -37
-13 34 -32
-38 50 53
-9 -32 8
33 29 3
-54 59 -48
-51 -17 -58
27 49 35
-57 16 -47
52 26 -11
-14 41 -43
-21 -22 4
-45 -23 -33
-8 -22 4
52 38 -7
-22 51 6
5 35 50
16 -10 -54
-44 35 -11
-60 22 2
50 37 24
-5 50 -35
-18 19 -24
-28 -42 19
12 15 -40
25 -31 34
-52 44 38
-29 -46 36
20 -33 -12
35 7 53
29 -16 30
43 -34 4
59 -16 -33
35 -1 26
18 -53 37
-42 -52 -1
44 -38 -27
-15 -29 23
3 -59 33
50 42 35
-45 10 33
47 54 -16
11 -5 19
7 37 -28
-53 -39 -37
-56 8 -34
