c 3cnf formula
p cnf 60 273
1 44 -10
-16 -24 -38
-6 32 -43
53 4 1
-60 21 -4
-54 29 -18
52 28 -46
10 48 -53
57 -34 47
17 41 27
45 -46 -5
34 22 23
21 15 51
-32 -36 28
12 -41 27
-1 -19 -18
-32 -58 17
11 -10 51
-2 8 30
-42 -19 21
14 -2 26
37 47 -23
57 -2 39
22 -16 14
13 -46 58
-26 57 59
8 39 16
-11 54 -19
40 -47 59
-8 24 34
28 -58 27
22 57 -9
6 27 5
-7 -45 -55
-45 6 55
-51 -33 -11
-47 26 -40
21 -29 -1
20 -23 -22
45 56 -12
-33 -53 21
13 6 58
24 14 -37
10 18 -1
42 51 -53
-51 -19 -1
-34 -9 16
-3 -43 -36
56 45 7
33 21 -53
-5 3 45
-26 -9 22
-29 -49 44
7 31 -41
29 53 -1
11 25 -42
-4 21 -49
-19 -25 53
-56 -12 7
-39 20 -23
57 -22 34
7 28 -46
29 -21 10
32 -46 28
39 -26 59
21 -33 50
27 36 -6
13 -32 -52
2 37 -20
15 -53 -25
27 -5 -3
-4 18 -49
-11 42 -53
-6 -27 46
32 6 31
41 36 -17
-12 45 55
42 49 19
6 -28 -3
16 -2 -30
20 24 -14
-18 -42 -29
-27 36 -31
-9 -8 -38
10 18 -4
-20 2 8
41 36 -17
-59 37 26
-38 47 34
-22 -37 -8
57 -2 20
-50 -51 18
-4 -11 1
-27 -41 13
-1 53 -44
-49 42 19
-39 9 -24
30 24 -23
-4 48 -44
-3 -41 27
-58 -46 -28
-52 55 12
-27 -12 36
-58 3 -13
-1 -4 -25
25 33 -60
32 31 36
-29 48 -11
56 -7 45
16 -39 26
-27 -58 3
-22 -37 59
55 6 -12
-11 51 42
-12 28 -41
16 47 34
36 -13 27
-21 19 4
1 44 4
-58 52 45
-58 -46 -5
5 -55 -41
20 8 -26
2 -26 30
-56 52 5
38 -14 40
7 -28 52
-43 -52 6
-30 -57 -2
44 -33 -50
-2 59 -37
-8 26 -37
52 17 58
9 37 -22
33 44 -25
41 -27 -55
8 -14 24
-55 -13 -43
-57 -30 -47
-8 -23 57
4 -15 -1
22 40 -14
32 -12 45
-60 1 4
36 45 -31
-8 35 -37
-27 5 -52
-9 -14 -47
59 -23 -35
23 -16 -39
37 26 -30
17 -13 36
-21 25 11
-24 -35 -37
-48 42 54
-41 -13 5
-23 -30 16
37 40 -2
17 -46 -56
-26 2 -38
3 -41 -36
48 11 -25
50 53 -19
35 -24 38
43 -6 -27
-51 -25 15
-6 -52 56
-12 -45 31
-11 33 -1
43 55 -7
-55 -32 56
32 -36 -5
-21 33 48
9 -59 -16
23 -39 -34
8 14 38
-59 9 26
33 49 50
3 -12 7
10 4 53
-24 37 -39
-25 18 -44
28 55 -7
-46 -52 -12
-16 -8 14
2 37 -8
48 19 49
27 -36 -43
25 -60 -15
-40 -23 39
-51 -48 -10
-15 42 -48
-4 -50 44
-50 -1 -29
26 -22 38
35 -26 20
6 36 27
-25 4 11
-23 40 -34
37 38 -30
-21 -51 54
50 33 -29
-32 -6 -41
-19 -48 -54
22 -37 16
-47 -23 -35
29 -60 -49
3 45 36
-1 11 15
-5 52 -17
-27 45 58
55 41 12
-29 1 50
45 52 -32
36 58 -52
22 -34 35
-55 -3 -32
-53 18 42
51 -21 53
7 -28 -46
36 28 -31
59 -23 39
-23 14 47
-60 29 -49
-16 -39 -26
43 55 5
15 48 1
29 -50 18
41 7 -27
15 48 44
27 36 58
-29 60 -19
23 34 -47
-19 -50 33
1 -19 29
-53 44 -49
40 -16 -23
59 -39 -38
-44 50 48
-11 1 50
-14 -16 34
10 -51 33
47 -22 -14
8 37 23
-49 11 44
-33 -49 -29
57 -38 -47
34 30 -24
56 -46 6
-32 12 46
43 -7 13
-27 -5 6
1 -51 -53
57 -14 8
4 -33 54
-18 -19 -50
59 26 -34
-57 -9 -47
-18 29 44
5 28 27
17 3 -12
-30 -20 8
45 -5 36
-16 34 -24
-33 42 18
30 -38 22
-49 -53 54
-26 -47 -39
51 -1 18
31 -7 -32
23 2 -24
50 -54 -48
39 16 24
