c 3cnf formula
p cnf 60 273
9 -60 -51
4 -40 46
-47 -26 34
59 -39 -27
8 30 20
-53 47 16
-9 -26 51
34 -51 -9
40 1 -24
-56 54 -22
52 5 25
-18 -29 -28
19 47 38
19 34 -26
43 52 5
-36 41 6
17 49 35
-39 -30 -13
10 48 15
31 -4 -18
20 30 49
-50 -32 -34
49 41 -36
-59 -41 -35
-21 -40 -33
-32 -37 58
-25 -53 -23
19 43 -60
3 -10 -18
42 14 17
25 16 -38
-25 26 2
-40 21 -46
44 36 -41
-35 -6 30
10 -48 21
11 1 -24
38 -16 -9
34 5 43
20 -35 42
30 12 -8
-55 44 59
-36 27 30
7 -55 27
57 22 31
-60 -52 -43
-23 -50 60
25 -37 -2
60 -47 -9
54 1 -24
60 -58 -19
-10 4 -1
12 -8 35
17 59 35
-3 24 -22
35 -20 30
-7 -30 -42
39 8 17
59 39 -42
-37 2 19
-3 -4 46
-29 -4 -57
59 49 8
10 46 -22
27 8 30
10 -11 -4
-60 43 -51
26 43 -32
-41 -14 36
21 46 -29
21 48 -18
23 53 37
-47 -58 25
-29 -15 11
-44 -12 35
-44 -45 -42
16 53 -23
-47 -16 -53
43 53 -47
-2 -37 -19
-31 -54 -56
39 -42 36
-36 -45 -7
24 11 3
41 -30 17
32 -34 -38
39 20 6
-29 33 3
-46 -29 22
25 9 -53
-6 41 -44
39 36 -12
17 45 -41
9 -19 58
35 49 -27
-22 15 18
24 -15 -31
-15 48 3
-3 -48 21
4 18 -48
55 -41 -44
30 27 13
-7 -44 -14
30 7 42
26 9 16
-30 12 42
-31 -22 -10
6 -45 -44
48 -4 28
-14 12 59
29 -33 -46
36 49 14
4 31 -46
9 43 32
36 14 -27
-28 1 18
-53 -2 25
-16 58 -9
-44 8 -14
-25 -58 26
-51 -9 -26
33 -28 15
-23 53 -60
33 1 -11
9 -37 53
49 -20 27
-36 35 49
-42 12 -35
-40 56 -4
-52 -37 -2
19 -34 -25
-3 -24 15
47 -2 19
-60 23 25
30 49 -12
15 -3 21
40 33 -4
-39 -12 -6
-46 48 -40
-53 47 -51
-22 -33 15
-59 -42 -55
37 -58 53
-55 35 14
-50 5 -43
12 -42 27
-10 15 28
47 -5 19
-35 20 12
50 -2 -25
-28 -22 24
8 -27 -20
-19 -51 5
-60 -52 -23
-28 -40 29
47 52 -25
-34 -52 16
-20 42 -41
-33 11 -40
29 18 15
-5 25 -58
44 30 -14
-34 -23 32
-43 50 -19
-26 -58 60
40 -57 48
-31 48 22
37 26 -23
21 -10 -56
-8 -13 -44
2 53 47
-47 38 52
55 27 -39
33 -24 -21
-18 3 54
-30 -59 -6
-6 -7 36
-20 35 42
22 29 -56
-6 -55 -59
-45 -17 -39
-56 -48 -18
27 -55 -6
-4 -40 -54
-18 31 -29
8 20 55
27 -36 -14
32 -34 -19
-40 10 -57
-60 47 -5
-49 7 17
18 -57 46
35 -42 14
2 47 -51
-45 -8 30
22 18 -48
-26 58 9
-18 48 11
-18 15 -10
44 8 55
-4 24 -48
-15 11 4
16 -38 23
-45 -36 -13
-1 48 -33
-39 -13 42
-11 21 48
25 -53 -50
11 48 46
-24 -56 31
-32 -9 -53
-3 28 -40
-23 -19 25
35 8 -45
45 -13 -36
19 -26 -25
23 -37 60
-19 -9 -5
-29 -15 4
15 -46 54
54 1 -4
-41 -45 -30
9 -5 2
-59 7 36
10 29 3
-54 -10 18
-5 32 52
57 4 22
-47 51 -50
50 -47 -58
-24 -11 21
43 -9 -2
-41 20 -30
-27 13 -44
-60 53 50
26 43 -50
-42 7 -41
-58 -23 9
-3 57 -46
24 -54 46
-49 6 -27
-30 7 44
-18 3 56
-59 -12 6
55 17 -42
-1 -31 -54
30 -12 -49
-45 -30 -36
43 2 34
14 -41 -27
-9 -58 -26
-32 2 19
-46 56 21
-41 -7 6
-2 26 -16
57 -10 -15
-54 -48 18
-50 -26 -9
-56 -54 -46
11 56 28
-7 -13 -35
55 -44 -35
30 59 20
26 -52 9
-21 -11 -31
-38 -47 43
-5 -38 34
-33 -40 11
-33 11 -28
33 54 18
19 -16 -26
-2 -52 58
15 48 -4
