c 3cnf formula
p cnf 60 273
-32 -16 -57
-58 12 36
-45 3 -29
-59 4 25
48 31 45
-27 -28 39
-60 -55 -59
-46 41 9
53 55 25
40 -6 -58
5 32 33
-57 -16 40
28 45 52
35 -24 45
-47 58 15
35 -39 31
-43 28 26
10 -7 37
-30 -14 -33
-5 30 36
-4 -49 37
29 -18 11
-19 -58 -16
-56 38 -14
-1 -25 46
45 20 -28
-17 60 46
-27 45 -51
1 -7 55
-7 25 42
-40 38 47
-34 14 19
43 45 -26
39 -13 35
-47 -34 -6
38 -21 19
-1 -60 -9
-44 -8 -25
-41 -42 8
-12 -58 57
-17 50 -44
-60 44 41
-34 -6 -36
40 58 34
45 3 20
53 -60 25
-33 -19 40
-2 -59 55
-10 -59 41
-59 42 46
-7 -53 -2
-47 -34 36
50 -7 -37
13 -27 51
-11 26 35
59 -60 -46
26 18 28
-14 54 -40
-57 33 5
52 -27 43
38 16 -30
-38 -16 30
-20 43 -45
9 -59 4
48 45 31
-1 41 -49
-17 49 50
39 -22 13
21 -54 -15
-28 -18 -13
42 -49 -53
22 -23 -24
-6 -19 36
44 -42 -2
-29 20 24
-51 -39 13
16 12 -15
-3 -23 -20
50 53 -55
28 -27 18
-52 20 -51
21 12 36
-40 -30 -15
39 31 13
-22 18 -43
42 -17 -55
-32 -30 -34
41 -42 60
-12 58 -40
42 50 25
39 29 -51
11 -45 -24
-54 47 -33
20 28 48
2 -37 -17
-19 38 36
10 -60 -1
38 -15 54
36 -56 12
-32 -6 36
38 -15 47
22 52 20
-10 42 -37
-23 3 -13
-59 42 9
-25 41 -44
8 -17 -41
-5 -36 54
-41 -44 -59
38 6 15
-48 45 51
16 -40 57
-2 17 59
13 -18 -48
41 8 -49
22 3 -45
-39 27 48
-41 42 -25
-60 9 46
39 -29 23
16 -5 -38
-5 -12 -38
-26 22 -31
-53 -59 -1
-21 -30 -6
-48 -13 -51
-2 41 10
-48 22 13
-60 1 -59
-19 -5 58
-28 -29 -27
-25 9 -55
29 13 28
30 -56 19
-57 -21 -6
-43 13 -22
-32 15 47
-7 -1 53
-52 13 -31
48 -51 -23
-30 -33 56
-32 47 -58
56 38 32
-37 -2 53
29 -35 -28
-45 52 24
-36 -33 -54
40 57 38
-19 21 34
57 -14 12
-55 -53 -1
-30 19 5
-57 54 -30
4 46 53
11 -23 13
11 27 -45
-5 -30 33
59 9 -17
-16 38 12
47 5 34
35 20 -18
-34 16 12
11 51 13
-4 -17 -49
59 -25 -4
46 42 -9
19 -58 -54
3 18 26
14 30 56
10 8 2
39 24 18
-35 -11 -39
-13 28 31
40 -5 19
-7 -53 -1
15 -54 -34
-49 -37 9
-52 -26 31
-5 -21 -38
-23 48 11
22 -31 -20
21 6 38
-32 -40 -15
53 -25 42
15 6 -21
-32 33 58
50 -9 -41
20 -45 -31
-25 2 49
17 53 -60
-42 -25 53
43 29 13
-60 9 -46
-2 17 10
39 -48 31
29 20 43
-35 -29 -45
30 40 -47
-37 1 25
-24 -26 -35
52 -43 -31
4 37 -8
31 -13 -20
30 14 34
-23 11 52
-14 -6 33
-17 59 2
-44 9 -7
-51 26 27
24 28 31
-37 -2 -55
-52 3 18
-35 48 18
20 22 -51
-56 15 12
1 50 -8
-46 1 7
-14 -40 58
57 -19 -5
-39 -11 -48
43 11 28
48 -29 -22
15 21 -6
-56 14 58
-54 -30 38
47 -21 -56
-57 -16 -19
10 -4 -9
-24 29 -52
-58 -47 -15
54 -5 21
17 -42 -44
1 -53 -55
59 -1 -42
37 -4 44
-28 43 -48
-2 -4 44
-50 -46 44
-26 -51 -31
-13 -35 -3
-58 -12 32
8 4 -41
21 -32 16
-27 -35 -29
45 -27 24
6 -58 -19
-9 -53 -55
25 9 41
49 10 42
-51 39 31
19 -6 15
7 10 4
-15 -58 54
-39 -23 -35
25 -44 7
-3 -52 -22
-2 -1 53
30 -36 33
34 57 -56
29 -26 20
38 34 56
41 59 -4
5 58 36
42 53 -8
59 -46 -60
46 4 60
-26 27 3
-26 45 35
-19 -57 -58
60 -37 2
46 25 -42
-3 -48 -13
-24 27 -29
