c 3cnf formula
p cnf 60 273
7 22 29
-8 24 4
-55 56 7
60 -10 -4
-14 51 -27
40 27 50
-60 -4 12
58 -1 -52
6 21 -53
-40 -30 -27
44 15 7
48 51 14
11 34 -18
60 13 -42
-49 6 28
-22 7 43
44 -52 58
-3 -43 29
-2 -22 -44
41 9 13
32 -50 -31
-49 21 -27
10 -17 19
7 34 -43
19 -23 12
21 -49 -51
23 45 -4
-6 -30 31
-21 -50 14
-41 17 60
60 19 -54
17 -25 37
-22 2 11
56 18 -1
1 58 11
-24 -8 -10
-46 -38 -44
11 52 -43
-42 -19 60
29 18 -55
45 9 13
19 -54 33
43 -18 56
-55 43 52
-14 48 -35
-3 -58 1
23 -12 59
-9 -19 -10
7 -1 18
60 -41 -33
18 -46 2
20 -7 -44
-19 42 -37
3 11 -38
15 -3 46
-18 -15 -44
35 47 -16
2 -7 1
-33 17 10
-26 -54 23
-14 6 47
37 -60 -4
27 28 35
-19 54 -41
5 27 31
21 -27 -6
-8 -45 -59
52 3 46
-6 -21 -49
17 10 26
-6 51 -16
-42 -59 -37
-48 31 5
54 -9 25
10 -42 -9
-16 30 -32
-12 -42 -41
30 47 57
-8 -9 -12
53 40 -57
14 47 27
-49 28 -21
-19 -25 13
-33 -19 -41
12 -9 23
17 -8 45
43 -18 7
6 -28 -57
47 -39 -35
-43 29 11
3 7 -38
-7 -36 -34
-35 -53 -48
-41 -12 -33
-12 10 33
-15 -3 56
-4 59 -25
39 14 51
52 43 7
-25 -60 -45
6 31 -53
-32 53 40
60 25 37
-21 14 28
47 48 50
56 -1 36
46 52 55
44 -46 -38
58 3 46
13 -9 42
-16 -49 48
-50 14 32
11 -55 1
24 -4 19
25 -8 -60
55 18 46
38 44 -36
-51 28 47
-35 -14 -27
-1 -3 -55
27 40 5
-1 -52 55
8 -59 25
-19 8 54
53 57 48
8 -4 -17
-34 -3 -2
-31 28 -5
58 -20 18
-6 32 -39
8 45 -4
-16 40 -31
18 56 -43
-54 -4 -25
-53 47 -21
-48 -31 -40
-37 -12 -54
27 28 21
-10 45 -33
30 -49 50
-43 11 -7
56 1 46
-38 -11 -22
36 1 29
-22 -36 -29
23 -25 -59
44 -34 -29
-52 7 15
18 -15 -34
-23 -45 26
-31 -53 -32
41 -9 -19
-45 54 12
51 27 40
44 46 11
31 -30 47
38 46 29
-43 29 -2
-9 12 37
-11 -56 -22
24 -25 23
-29 -1 -11
30 27 -31
55 52 34
56 22 43
-39 -30 -27
3 22 -55
-37 24 -60
-44 -36 18
-16 -51 -21
-49 31 -14
7 34 -11
12 -17 41
13 19 17
-27 -6 -47
-3 55 -43
49 35 -16
6 48 -5
55 38 2
-41 -8 -54
31 49 -39
-46 -11 -36
-40 -48 -16
-21 32 53
-27 5 -6
49 50 30
-21 39 -47
47 -21 51
60 -54 -45
-23 -26 -12
-54 8 45
49 28 30
-10 60 -59
50 40 53
-37 45 59
38 -3 20
-41 9 8
-24 -54 26
-60 23 17
-3 -7 18
-29 -15 43
-44 46 -55
22 -7 58
-5 -35 -27
55 -38 52
29 1 7
-16 -50 -32
-54 17 -59
2 58 46
54 -17 12
-41 -23 -12
-2 -52 7
35 -31 16
-34 7 -36
27 39 -6
46 -44 -38
-4 -17 45
-40 50 39
-12 17 -10
-36 -18 -7
-12 59 -45
45 -19 54
-23 4 -33
58 -38 -29
-5 -35 47
-44 34 2
30 57 35
-28 -48 39
-56 22 1
51 -49 5
47 32 49
-47 -21 -53
5 -31 -53
-8 -12 23
5 -30 -39
-13 -19 -9
9 -24 23
-60 33 -45
-40 -6 -39
-8 12 -9
46 -2 -20
54 -17 -37
-44 3 29
57 30 -47
-7 38 52
-54 42 23
-40 27 35
31 48 -39
54 -19 -10
-51 -32 47
14 -40 -30
-53 5 16
-53 30 -16
20 -36 -1
-20 -34 11
26 23 -8
13 -59 4
-51 -50 30
28 -21 -57
-41 23 9
3 15 46
8 13 -9
2 38 29
-26 -41 -13
2 -29 20
-37 -42 24
16 50 -27
26 17 -23
31 -39 -21
12 41 9
-36 46 56
7 43 11
-28 47 -35
