c 3cnf formula
p cnf 60 273
51 29 27
15 53 26
21 -18 35
-28 -51 -57
17 -39 -57
-41 -25 -22
19 58 17
22 33 16
-3 57 -29
30 -53 -32
60 9 16
-56 14 52
-13 25 21
26 6 -24
29 39 -23
-10 -3 -27
30 -31 32
30 42 26
27 59 -46
46 40 -39
55 7 -27
3 -23 51
-59 -40 -46
-13 1 -47
-8 44 35
-31 -36 -14
-16 -60 -50
43 5 -30
-16 -13 -35
11 -13 18
-17 29 40
28 20 -55
-54 -49 -14
-55 -57 23
56 52 -26
-19 55 2
51 20 -27
-8 4 -9
11 41 13
52 32 49
-37 21 13
49 -36 -54
48 45 31
-50 -9 -22
5 -53 -24
4 -21 -11
34 31 15
26 24 -48
43 48 -42
-20 29 39
8 -16 -4
-56 -48 15
-42 53 26
30 53 -15
9 16 -21
-14 31 -6
-6 56 -49
47 -9 16
-53 -14 26
29 -3 -58
-41 8 -1
-59 -57 20
10 40 51
-32 -43 -14
-59 -29 19
-60 -16 -25
55 -19 -38
-43 48 -32
15 54 -6
-32 6 -24
31 26 -45
-23 38 -19
46 57 58
15 24 54
46 2 57
38 -7 -17
57 29 -19
7 -55 59
-3 -7 -58
-5 -31 14
6 24 -5
-56 -43 52
-12 -21 9
40 -51 57
-46 -19 -17
1 -8 -25
46 10 3
16 25 -18
-30 42 -34
5 30 26
26 42 43
-45 15 6
29 19 23
52 32 54
-2 -51 -19
-50 33 -21
-9 4 -13
-60 -50 33
-45 26 34
32 -24 31
26 -24 -15
55 -2 -19
59 -3 -55
56 -26 -30
48 53 -26
-47 16 -22
44 11 -12
-41 47 -50
52 42 -30
-5 48 49
15 -34 49
-17 58 -23
38 10 -2
-56 42 -53
48 -14 -5
55 19 -7
-25 -8 33
19 -28 -3
53 6 48
57 59 20
-10 58 23
-25 -22 35
-14 -43 36
-9 -22 18
40 -59 23
33 8 -13
13 -16 -35
3 20 28
45 31 52
31 24 -56
-58 19 38
-25 -60 13
-3 -28 27
-32 54 -36
13 -21 -9
27 46 -51
-3 -17 -29
10 -20 -2
27 -57 55
42 -45 -30
-1 -33 -4
14 49 -53
-39 -3 29
14 -34 42
-18 -41 47
-51 -20 -7
32 -34 24
16 -1 50
-9 -22 -21
-12 16 1
-33 4 -1
-42 -6 -34
45 -15 -42
4 -12 -37
2 38 -19
4 -9 -13
12 -50 -33
-13 21 8
40 57 17
-26 -36 56
24 -52 -43
3 -10 -57
-14 -34 -54
4 -1 -12
10 -3 58
-35 33 4
8 1 9
28 -20 -27
27 -3 -46
-9 37 -25
11 9 47
-27 -39 38
-59 -55 2
-3 -17 40
-32 45 -43
-23 -59 2
3 -7 29
-18 -8 -35
53 -48 31
-35 -12 44
-60 -47 -18
28 -39 -27
-33 44 37
-37 -16 -60
55 51 57
21 -47 -18
36 6 -15
-11 12 13
38 -58 -29
19 55 58
-32 -49 -43
-23 -55 29
-53 -26 -30
-57 59 -7
-24 -26 -43
-2 20 39
-26 6 56
52 32 6
-13 -25 -50
-41 -33 12
56 -34 53
-20 51 -57
-58 -40 -23
-27 7 -20
22 -60 -50
-47 13 -44
-1 -12 8
4 9 50
15 -45 26
-37 -11 33
13 47 -44
22 -44 33
-33 18 -47
-19 -7 -27
-60 21 8
-12 37 -13
50 -35 47
-17 55 39
35 -33 11
8 -41 44
41 -22 -16
-50 13 44
-56 -42 53
-55 -7 -3
16 11 -4
-55 17 58
-35 50 -21
-14 -48 5
51 -19 -27
-37 4 18
-60 -9 -8
-59 10 23
-10 23 29
36 -42 -24
-43 31 -24
3 55 -57
17 -58 3
41 -12 4
-47 50 -22
18 41 -12
34 6 56
55 -28 -17
42 49 14
39 -57 51
44 22 -18
-52 -5 56
32 36 45
6 45 43
11 -44 8
-58 -39 59
20 2 -29
39 2 -59
47 -22 -9
-9 37 -8
-9 -8 -37
-56 -49 -26
46 -55 -19
-49 -45 32
-46 -3 -55
32 -30 -36
8 -60 -9
19 39 -17
-15 -53 -34
-6 5 26
11 -18 44
31 -32 -6
15 48 -52
6 -49 53
37 -8 -47
-56 45 -53
5 14 -56
-21 18 -41
31 52 49
