c 3cnf formula
p cnf 60 273
-45 -42 -55
7 -30 -24
10 -15 23
29 -32 13
-27 35 38
54 -4 -44
-57 -42 46
-5 -39 -19
-17 -41 -2
-11 37 -2
29 -41 -58
27 40 -57
-35 -46 -38
-59 44 -60
-54 -59 26
-4 -60 43
-6 -29 39
-8 26 -25
9 -17 6
-3 52 25
34 -45 38
-20 54 4
-11 32 13
-56 24 30
-6 33 -39
20 -56 -16
-44 -7 -48
34 1 -23
-44 48 -14
10 35 49
-37 -19 22
-8 -59 60
-30 7 52
34 42 27
51 -59 -52
-58 37 19
32 13 -33
-55 -49 -45
-12 46 31
1 -57 46
22 -39 11
-26 43 -14
-58 41 47
44 -8 16
48 -54 -26
41 -11 -6
-60 16 -56
31 49 46
-36 13 -47
-1 -15 57
-8 -7 -14
45 -49 -57
41 13 28
-35 10 1
15 -38 -21
6 19 -36
3 -56 7
28 2 9
57 -23 -15
-10 34 35
-51 20 52
59 -54 44
47 6 -18
-32 37 9
-48 60 -30
49 40 46
-56 43 -3
-5 33 -9
21 -42 -35
-22 58 28
6 -9 -17
-7 51 -26
-57 -45 -38
57 -34 50
-15 -57 -38
-14 -44 7
7 -60 -14
3 51 7
21 45 53
-39 6 22
-25 56 24
-5 -17 11
-32 36 -47
-27 12 -10
32 19 41
3 30 24
24 14 4
-26 24 3
-45 10 -50
-15 -45 49
16 -59 -48
-13 18 41
35 -45 -31
44 60 -56
-59 -3 -16
-33 -9 -13
43 60 25
-30 -8 54
48 -26 -20
-53 49 31
-54 7 -51
-23 40 -15
8 -48 51
44 -51 26
47 37 -29
42 -27 -12
38 -21 -27
26 -8 -52
-60 48 26
-4 -56 -43
41 -19 -37
2 5 -19
52 -20 -51
23 -53 -49
-14 3 -43
31 -55 21
16 30 -8
-46 40 50
41 17 -2
39 17 -47
15 -27 49
-10 -34 -50
-15 49 -27
25 54 -4
-55 -12 53
-14 44 -24
36 5 41
-48 -51 -56
41 -9 -13
-33 18 9
40 -35 55
54 -60 3
-17 -29 -2
-22 -33 -28
-10 50 35
52 -26 -59
-19 -33 -2
-28 47 -33
12 27 -34
-39 -32 -33
33 18 -13
-44 48 20
42 46 38
59 26 -8
-29 -11 19
-10 38 27
-42 -55 -31
21 -57 -45
-47 18 -22
15 57 31
32 37 33
-59 -54 8
24 -14 56
7 -3 -20
14 -56 -7
-25 26 48
28 17 -2
29 19 -22
-6 -58 -22
39 32 -11
-13 -2 6
-9 -5 58
55 10 -53
-23 53 -21
24 -52 -44
-29 22 36
-27 -50 -49
33 -13 -37
47 -5 13
-54 60 -24
22 -28 -9
-57 34 38
-21 -31 -50
42 50 -53
-18 33 -39
14 30 3
-19 11 39
23 12 38
-14 -7 20
24 54 30
24 59 16
23 -57 -35
-37 -32 13
53 10 -57
48 8 16
-11 -41 17
-45 -50 -42
-9 39 11
33 58 -36
-39 58 -9
-27 38 12
-44 7 52
-57 -45 34
-56 20 -51
44 -60 54
-60 -24 -51
31 55 49
18 -37 -11
23 45 21
-58 13 -2
-45 10 40
-4 30 60
16 -25 59
-38 -35 -21
43 8 -59
44 -24 8
40 -42 50
-20 -51 14
-5 36 -28
45 31 46
30 3 -20
37 -39 58
22 18 -47
-15 -50 21
-53 1 -50
-26 56 52
-7 25 48
36 -39 -41
22 29 -6
15 -23 -12
28 -17 -19
-49 35 -38
51 4 7
-15 -50 38
19 -17 28
8 -3 -60
-6 29 32
-9 2 -19
-57 -45 50
-2 33 19
-23 -31 40
7 59 56
41 -58 32
21 23 15
-57 -53 -38
-2 41 -28
-48 -59 -8
32 -11 41
-50 -1 -35
21 15 38
49 35 -1
1 -23 -50
4 60 7
-7 -43 -24
11 -5 -47
-18 32 28
-4 8 51
-14 -3 -4
-31 -23 -40
37 -29 -58
10 12 -42
-7 -30 56
-55 57 34
-15 -49 53
34 -10 50
34 53 -46
35 -53 42
10 -55 40
-35 -10 31
-28 -19 39
-39 9 41
-2 58 -29
-52 -7 -43
-12 -31 -35
-28 13 37
-56 -52 -14
-11 -29 -2
30 -56 54
-41 -39 33
-37 -29 2
-21 -55 50
-39 -17 -6
28 5 -18
