c 3cnf formula
p cnf 60 273
19 53 35
-8 -19 47
17 -48 -31
-22 37 58
42 33 -9
-28 -11 -45
-8 -39 -31
36 -28 -46
-6 -25 -32
46 -45 20
-27 11 -28
60 54 -26
29 1 -38
43 6 -58
12 -49 51
7 -52 -8
-57 22 10
-28 34 -26
-2 26 30
39 48 33
19 -31 -52
16 29 -28
4 13 -18
-42 -5 -35
50 55 -42
29 -54 -38
-54 -20 -46
7 -42 50
42 9 8
2 -36 28
24 34 -29
-11 16 59
-24 -2 -16
16 34 59
-48 -56 -33
27 45 34
54 -24 60
-37 -58 -15
-42 56 17
-51 -14 -58
50 55 -48
7 23 48
-50 -31 33
-58 13 18
-21 -57 -15
-18 -4 -15
-19 -53 42
-14 10 18
-11 -2 -26
-40 12 -22
-39 31 33
-7 41 -52
-59 34 28
25 3 -13
-39 47 -50
7 35 55
39 48 53
3 -10 -15
-21 -32 49
-54 59 36
31 35 17
46 -1 24
-56 -31 42
29 -16 -36
-38 30 29
-39 -9 17
-2 -38 -28
11 27 34
-6 58 21
-52 39 47
20 -1 -44
14 13 -43
6 25 -37
44 20 38
-60 44 20
28 36 59
54 16 -20
42 -35 39
-35 -9 -42
-55 9 7
-34 26 -38
-34 59 -24
56 42 -55
3 13 -4
-9 -48 -7
-52 -55 19
-45 1 -24
1 -29 -2
5 -33 47
46 34 29
-13 -10 -51
-35 -50 -52
-40 -14 12
33 41 -9
-18 -25 -6
-58 -13 49
-8 -31 53
-58 -37 -6
-37 58 51
-28 -54 27
8 50 56
40 -14 43
38 30 -60
1 -26 2
15 -40 25
-9 -19 -31
-27 -26 46
45 -30 44
-25 -14 18
-2 46 -59
-8 -7 -50
13 -49 4
-9 -52 23
43 -4 -21
7 -56 -8
52 17 50
2 -27 11
-14 37 -12
-35 33 39
18 -43 22
-36 -34 28
-40 -18 21
36 -45 54
-29 46 44
-22 -12 -21
4 -40 -3
-35 41 -47
25 58 -3
18 -21 -15
-19 -31 -48
-21 10 18
-28 24 1
-15 -49 32
-57 18 -40
-23 56 -9
55 47 -39
5 17 -39
37 -3 -57
-58 25 51
-37 12 -13
41 -5 53
10 -12 -37
-9 42 52
-35 -50 47
11 46 36
-39 -8 -41
44 1 -16
-54 28 -1
-19 -53 -23
14 -3 51
-35 48 -47
-3 -22 -25
47 -35 41
-57 25 3
-29 -36 26
-57 -51 40
-21 -58 -6
26 -46 -38
-8 -33 56
41 -48 -19
-34 16 -36
16 -30 -34
-29 -34 -36
-37 -25 -49
15 -51 18
1 -11 54
-59 -27 1
-35 -50 41
25 13 -21
-34 -26 -11
19 -55 -42
-15 -4 -25
28 44 27
2 45 -38
-37 21 -4
-46 -29 -36
24 -36 -60
18 -49 -21
19 -35 -31
-18 43 58
-50 -7 -55
-32 -14 -58
7 33 -23
3 -6 -22
-36 27 -54
-7 -55 -33
52 31 -53
49 -32 43
-50 48 56
-33 50 -39
-40 6 -21
-4 -14 6
60 -2 59
-41 53 31
45 24 36
-36 60 -34
44 54 30
23 -53 35
-34 -16 -60
29 16 -45
-56 -39 52
2 46 28
17 -52 -50
-11 -28 16
-45 -34 -20
54 59 34
31 -17 53
-5 23 17
6 4 57
2 -24 44
38 34 54
3 12 21
37 49 -21
-25 43 -37
-37 10 -3
42 55 50
48 41 39
-46 45 16
26 30 2
-49 -3 -43
25 -37 43
17 9 -50
12 22 -58
47 -39 -55
-46 16 54
32 4 51
-12 13 3
45 36 60
17 23 -9
-29 -54 28
40 -6 15
-51 -3 18
57 -13 4
-6 18 -40
-55 -9 -39
-9 55 -23
27 -2 -30
-55 35 -52
11 16 45
-60 24 45
8 9 -31
40 -18 13
-14 -51 -25
-44 29 54
10 58 -57
12 22 10
7 9 -42
-54 45 -29
39 -35 52
-47 -23 -9
-41 -31 -39
-38 59 -54
-9 7 -53
5 -19 -33
-58 -12 -14
40 -58 -6
-21 -37 -25
-5 35 17
-56 -5 -17
32 -15 -12
-37 -3 6
32 -14 6
-44 2 -26
-6 -57 49
-26 1 44
36 -30 -34
-1 45 -34
10 -40 15
-34 38 -27
51 18 3
35 -33 55
12 -40 22
6 14 13
