c 3cnf formula
p cnf 60 273
-23 -31 -33
-3 29 -45
-6 -23 5
-56 36 34
36 -53 -34
58 -42 -53
15 28 14
-57 21 8
50 33 -7
-41 36 53
37 19 56
32 -2 54
-8 -57 -4
52 -10 38
-42 60 37
29 -8 -11
-5 -12 -6
35 28 3
10 56 36
-22 48 55
-17 -8 55
-41 -53 51
-41 -19 60
-55 -29 8
-18 -29 45
14 28 45
12 -31 -32
-24 -13 -36
-17 29 28
-41 -60 56
-28 35 21
51 56 -46
-52 -46 39
1 -15 55
-33 59 -54
-51 41 -56
-45 22 55
4 18 16
8 57 29
-26 -31 -49
41 37 -30
-17 22 -29
-44 35 22
-60 -41 10
27 59 23
-47 31 23
-45 28 16
1 -16 21
-3 -17 8
-24 -34 -58
19 41 37
4 -1 -21
-23 -59 43
31 -27 -23
-41 30 -42
-40 5 6
54 -40 -59
27 43 5
20 59 7
-1 -35 45
55 57 -44
-44 -11 -16
-54 -2 -49
30 -13 -46
-15 -17 -3
43 -26 2
-42 58 56
22 15 -4
-47 -54 -7
-6 2 5
-35 -57 -29
-50 40 -7
-53 10 -41
-14 1 -3
-3 -35 -55
-14 18 -8
-51 39 -42
-53 13 -56
-4 -21 -16
2 49 -32
-38 25 30
32 -31 12
52 -53 36
58 39 34
56 25 34
-54 20 26
-33 9 -7
16 29 22
-59 -43 -12
-5 -59 -20
-49 6 32
37 -10 41
55 15 45
-47 5 7
-21 29 -55
10 42 56
18 -14 -48
9 20 12
-1 -35 22
3 -48 35
13 -25 60
35 16 29
1 45 22
2 5 26
-37 52 -56
4 -45 -35
46 13 39
-12 7 -26
40 43 -54
-60 -38 46
26 2 -40
32 -43 -47
-21 -44 11
-41 -52 51
-30 25 60
-15 -18 11
-7 -31 -54
47 31 -49
-28 18 55
-32 50 27
-27 31 40
-57 29 21
-43 23 54
55 -21 45
48 -3 16
-51 -39 -37
31 26 43
60 51 41
5 12 -54
-34 46 52
-50 -2 7
52 39 36
29 -22 48
31 49 12
15 -48 -17
20 -7 47
-47 2 5
-17 -18 -28
11 -45 15
-18 45 15
-49 -50 12
-35 -17 -55
49 54 -26
-24 -30 42
-37 -53 34
12 -33 27
13 -38 58
-52 -38 -36
51 -30 -37
-23 49 -7
-33 6 5
46 -42 -53
-44 18 -28
-1 -3 48
-54 -23 -59
17 15 -55
-42 -51 -39
24 -42 19
50 23 7
8 28 18
-10 -39 -53
49 -43 -33
42 -13 -37
8 14 45
23 49 -47
20 43 -47
30 -60 51
16 3 55
-38 19 -13
25 56 -60
28 4 -48
-18 57 -16
20 26 33
22 -3 -11
-38 -51 41
36 51 -24
3 18 -11
44 -29 15
-22 -3 14
-38 13 -51
-10 -53 -58
-46 -53 13
-51 42 34
40 26 -6
-22 -14 -28
44 -57 -4
-7 2 -12
19 60 42
-47 40 -27
-49 -26 9
-28 -29 11
-34 -19 -38
-43 -9 -20
13 51 -42
26 7 59
-49 -43 -47
59 -33 -40
19 42 -51
26 -7 -40
4 -16 1
-9 7 59
-42 39 -38
36 -13 58
52 13 -36
47 -6 33
3 48 -4
26 5 -20
50 -47 -12
-9 20 26
6 20 -40
-32 -49 -23
11 -16 -3
18 14 -11
14 3 -16
-10 38 46
-44 11 22
10 60 38
4 -11 -17
-10 -38 39
41 -36 -30
-25 -36 37
-12 54 -47
-3 -8 -44
46 56 -34
-13 -34 -30
-32 49 43
-1 44 55
-9 33 -59
20 23 49
-60 39 37
-36 -51 24
-59 -49 47
-20 -43 7
53 42 -37
37 -52 60
22 -18 15
36 -42 19
-13 24 30
46 -41 -34
5 9 47
18 57 3
-28 -29 18
-7 49 -33
-8 -18 -44
31 40 -26
-59 27 -7
36 34 56
37 -56 51
-3 -45 -44
43 -6 -2
-40 -59 20
17 57 -8
30 52 42
-57 16 22
55 -48 17
-50 9 32
36 51 60
44 -11 -17
2 5 49
-24 46 36
6 -43 -40
-53 51 -46
43 -31 7
-16 15 44
-55 -35 29
56 58 -10
-27 20 12
34 -38 24
29 -4 -3
16 -44 -17
10 -42 25
5 -20 54
56 36 24
