c 3cnf formula
p cnf 60 273
16 -49 26
-3 51 -22
20 21 10
-56 36 -16
-38 -27 -13
-7 24 34
45 -46 -39
-46 18 -55
58 32 -27
-52 -36 40
21 33 47
26 37 19
-31 57 -32
-26 52 -41
-46 -47 21
56 -36 -49
-54 -6 14
-7 -49 -11
5 32 -27
-8 -23 -3
-28 46 30
18 48 46
4 -31 -22
36 -1 52
11 56 -34
-56 40 -52
-21 -47 29
-12 -8 57
-40 7 42
-14 -48 -10
32 23 58
60 11 26
-19 11 -56
56 49 -43
60 1 56
54 -47 39
35 -30 18
59 -38 -22
-25 45 -35
50 31 -51
-11 -37 -24
51 53 31
55 -2 54
-25 20 33
12 23 13
21 -47 -46
-23 -32 57
-45 -25 -10
14 -39 28
9 32 -4
8 -9 50
-31 -3 27
34 -52 40
-39 47 -25
-51 -13 22
38 22 -53
35 48 -55
37 60 52
58 -5 -27
41 -37 -1
-47 48 6
48 -25 -14
-51 -15 27
29 -47 25
47 10 -45
18 -30 28
-14 35 20
-25 -46 -10
9 31 13
27 12 15
-31 27 -13
-7 -17 -44
-4 59 -31
5 32 23
-4 -22 -13
-52 -43 -17
-14 -2 -28
52 -44 49
-18 45 2
-6 18 -30
46 30 25
1 52 24
17 42 -56
-27 51 -23
-46 -20 -29
45 -30 47
12 4 59
55 -39 -30
26 -24 -17
-26 7 19
-23 -3 22
35 21 48
1 17 37
17 1 16
-22 58 -32
-52 -16 -26
-59 -51 8
46 -14 -45
51 -8 -50
-42 1 -43
2 21 -48
-46 -21 54
-52 -44 -7
-6 -45 -46
-7 41 -49
30 -46 18
31 32 57
-22 -3 53
-50 5 -4
36 -1 -43
59 -53 4
11 -56 -17
-24 7 40
6 55 -18
-49 42 -43
21 35 -54
1 52 42
44 -40 56
-32 57 9
-54 48 25
-35 -28 -6
46 55 -39
-36 56 7
-37 -52 -49
-14 -54 30
-22 -4 -57
-52 -1 -36
13 -51 4
10 -21 -55
7 34 56
-8 -12 -15
-9 -5 12
-21 -20 -6
49 26 19
-22 -57 23
-31 -13 27
-50 -51 -9
35 39 48
10 45 -18
42 43 52
31 -22 13
-29 -33 -35
55 10 29
24 60 -11
45 -14 39
-47 -45 46
36 -1 -41
-18 -35 10
-19 60 -1
28 -20 -6
16 -49 -24
11 52 -42
24 16 17
52 17 16
-6 14 45
41 40 -42
-38 -4 3
2 -28 20
55 -39 -20
-47 18 48
-41 40 -19
40 -42 52
-22 -51 38
15 53 -5
-40 60 -56
-44 17 19
32 27 50
-34 24 -36
-51 38 8
52 -16 40
-23 -51 -38
30 47 20
22 32 -3
1 49 42
-10 -48 -55
16 41 -49
11 41 -17
-21 -55 10
22 3 -13
53 -58 50
-53 -38 9
57 -3 -15
-48 20 2
56 -60 49
34 7 -17
28 -55 -47
-11 -41 19
-34 24 -17
-43 52 36
-9 31 58
12 13 32
-42 -11 36
5 -13 -27
-23 32 -13
-35 -18 -28
57 -5 -4
-57 -13 58
-60 36 41
51 -9 -59
-37 60 -1
26 -37 -19
-22 27 38
42 -1 -24
-9 23 -22
-27 -50 59
-44 -43 -1
-34 36 -26
3 27 38
-35 -47 29
39 25 33
34 -24 37
-18 -25 -29
16 -19 -36
27 -31 -51
50 38 -23
-57 32 3
-17 -42 -40
-22 -4 23
-36 17 49
53 57 -4
-10 -48 54
33 25 45
23 5 -12
-3 -59 50
10 -35 47
38 5 22
53 -8 -51
54 -29 33
-5 22 50
-31 57 -23
-9 57 -4
29 -46 -35
-42 17 -26
-29 25 -47
25 48 46
-38 9 53
29 -25 2
-4 12 -51
-25 55 -29
2 -48 -45
8 -22 58
3 -22 5
55 29 -39
1 -60 -11
8 31 -38
37 40 24
-23 22 38
33 -21 -6
58 -50 -22
21 33 54
45 -21 -35
30 -33 54
-37 44 -41
-22 -38 9
49 -34 43
21 -28 14
-48 21 39
-47 55 46
14 -25 -54
-55 48 6
-41 -17 26
55 -47 -10
-27 -59 4
50 -3 38
-49 60 36
16 26 11
55 45 -54
16 37 17
11 37 42
42 43 41
1 -52 36
41 44 -42
-53 38 59
