c 3cnf formula
p cnf 60 273
-25 -55 -58
-11 55 -12
2 -30 42
50 -54 14
42 -27 -20
50 31 54
23 39 18
-54 19 -33
21 15 -34
-10 -38 -58
-4 27 42
-14 -33 52
-52 1 28
-35 15 26
3 -6 -17
50 -33 9
-42 -6 8
-23 36 44
-18 -56 -10
37 56 -44
-11 -56 10
55 51 -11
49 4 21
8 -6 -21
-53 -51 40
50 -9 -54
-7 16 31
-31 33 7
-38 -39 5
-55 -18 -38
3 26 2
-43 18 -53
-60 -14 19
-54 -22 -41
44 11 -55
5 -12 36
8 15 27
-42 4 -17
27 -21 -2
3 35 6
-56 44 -51
-23 43 -11
23 -44 -10
48 -28 41
45 35 -13
44 18 -40
11 -37 44
17 21 -27
16 29 9
-5 12 -44
49 24 45
-2 -26 -35
1 16 29
-33 41 -31
10 44 -12
-57 42 3
16 54 -9
-9 7 -19
-17 20 -30
-32 -40 44
24 -21 -8
41 31 -46
21 -57 6
-39 -25 -38
18 -55 -10
-45 2 -49
-60 33 -46
-40 -37 -38
-38 23 58
16 -14 -47
57 49 -20
-33 -59 52
33 -14 -9
8 -35 15
-33 -41 -54
-22 46 -19
-24 -42 -57
8 3 -13
-25 -43 -51
33 16 22
-2 -57 -45
-34 -45 -27
-47 -52 -28
5 -55 39
-49 24 -17
-47 -31 -41
31 -47 -22
29 -48 -14
-44 -43 -10
-1 -52 -48
24 -3 -27
12 -37 -43
44 12 -40
1 54 7
57 8 3
16 -50 28
53 51 39
49 -45 17
31 1 33
-22 -14 -28
-19 41 31
-23 25 5
-34 17 -26
28 -31 50
-33 -31 48
-22 9 60
56 53 44
-55 5 40
15 -17 -35
59 -31 48
-51 32 -37
13 21 4
33 -52 19
-24 -27 15
42 -2 -20
-60 -33 41
28 -60 29
11 -32 36
4 42 -26
-47 -41 60
-44 36 -43
15 8 -3
-33 -16 50
23 12 -40
-13 -8 24
-9 -52 31
-32 58 5
-53 -36 58
31 -54 46
42 13 6
-36 -56 10
-25 -38 -56
10 -23 55
43 -56 -18
-7 9 -28
5 -11 -37
46 9 16
-43 -11 44
-44 38 -51
-33 29 -54
37 18 56
-47 60 -19
-13 -15 24
-33 -54 31
-57 -42 -6
-20 -45 -17
9 -41 -33
55 -11 -40
5 18 -32
57 -49 -20
-31 1 48
-19 29 -41
-32 10 43
45 4 -20
45 -57 -35
-35 8 -4
57 17 30
-51 -18 -11
8 -26 30
29 28 9
39 36 11
6 -13 30
16 -1 -41
24 42 49
-21 27 -30
60 59 7
14 -33 -46
-44 10 -23
-10 -39 -58
60 -59 9
-50 -29 -14
45 -17 6
-13 34 -20
-27 6 -45
-49 -30 3
-43 25 -58
17 3 -35
56 -55 39
40 32 -55
16 -1 9
6 -17 -20
39 55 -44
23 -56 55
39 -5 -43
53 -11 40
41 48 59
43 36 37
12 25 55
-45 24 34
-29 -22 16
22 54 29
-37 38 -51
14 52 50
-29 -1 -33
-59 -33 14
25 53 44
56 39 -36
-37 -23 43
40 -56 5
45 -17 24
-23 12 18
-32 -44 25
-41 22 -7
41 -28 19
13 -24 -26
-46 52 60
26 24 -8
-32 -25 40
-6 42 -30
-35 -45 34
-29 48 46
-3 13 42
17 6 13
19 59 54
-21 -15 -8
55 32 -53
-13 -34 -6
49 -20 -3
-57 -13 26
13 -6 15
-37 -58 10
35 -21 3
-29 52 1
-15 -57 3
23 10 51
-55 -56 -44
4 -57 -42
-20 -42 -15
22 -54 -47
-56 -39 55
-44 51 55
-34 -35 45
54 -60 52
-48 -16 28
43 -18 23
-55 -40 23
-49 -4 -24
15 21 -35
-60 -41 50
29 -52 -16
29 41 -48
-20 -4 13
22 1 9
32 53 56
27 17 30
52 -41 29
24 -42 -45
-38 -25 37
-40 -25 -36
49 -21 -20
14 31 -16
31 -52 9
28 -9 -1
-48 9 46
31 60 16
32 -12 58
-18 -56 -25
48 14 -31
1 59 -41
-9 54 -1
-15 -6 -20
8 42 49
-13 15 6
-4 -24 35
-17 -49 30
-19 -14 -50
-25 -53 -12
-32 37 12
40 37 53
-33 46 -52
-39 25 12
26 -42 2
-24 21 -4
