c 3cnf formula
p cnf 60 273
-31 -51 -32
-47 26 -48
-19 48 -3
37 44 -36
10 -29 3
-45 22 47
39 42 -4
-29 -57 43
22 -30 -27
-49 7 -44
15 21 -14
-18 -6 -20
-49 44 -50
21 -42 50
-28 34 -6
39 -42 7
59 -14 -39
-15 -4 5
20 51 34
-55 -4 -44
-1 7 44
51 -34 -20
56 23 -20
-7 -11 1
4 -39 1
-31 -18 -9
26 -29 -45
44 5 -36
-51 -9 56
6 -28 23
41 -40 12
25 54 -51
55 -5 21
-27 43 -3
-42 -36 -4
37 11 58
-10 3 13
-23 51 -31
-31 53 56
-18 -20 40
23 31 53
-47 -24 -22
-33 12 -41
-1 21 15
-8 -48 38
60 3 -38
20 -6 -9
13 48 29
21 -44 59
-18 20 41
-1 5 -14
49 1 58
18 -12 -6
5 15 37
-15 -17 44
-33 -18 54
6 -28 -33
49 -15 -59
-48 -10 -22
58 4 -17
17 -15 5
-38 -47 10
35 41 -23
15 7 -5
13 45 3
-31 25 9
53 -12 18
56 40 -35
-39 49 4
41 31 51
57 -47 -3
-52 -47 27
56 53 51
-7 -17 -37
-47 -60 -26
-27 -38 -13
28 -18 -31
53 28 20
4 58 -37
38 -43 60
-51 -31 -40
23 -2 -31
52 -46 26
-8 -10 19
40 -28 -53
-4 37 15
23 -41 -56
-5 37 -50
39 -55 49
-41 -12 31
-17 -1 42
35 -25 54
9 -28 23
24 -30 -29
-46 -52 26
-36 -59 49
-55 -17 -14
-53 -35 -23
57 60 29
27 -52 19
22 -52 43
7 17 -21
-30 -10 19
20 35 40
60 52 -27
59 -15 -37
7 -50 -55
-1 -39 5
-39 -59 55
43 29 24
13 26 27
-17 59 39
-33 12 25
-44 5 -4
43 -27 10
1 -44 16
36 -16 -4
-30 -22 60
-14 16 1
-7 -1 -17
-48 -60 47
48 52 -43
32 -9 -54
-43 27 8
1 17 -50
14 37 11
-59 44 -36
-18 -28 -54
27 30 -3
-60 57 19
-4 42 -55
53 -23 54
25 -54 34
-34 28 -31
58 -50 44
56 -25 6
-50 -42 -58
52 -3 -45
-39 59 -42
-41 40 -56
-17 15 1
14 -55 -11
56 -34 18
-10 -52 -30
44 55 4
-21 -16 -7
13 27 8
-24 8 -13
19 27 -22
-38 3 -24
-4 -59 -36
43 27 60
-8 -3 -46
41 51 -12
28 12 -40
-39 15 -37
32 -56 25
-1 4 15
35 20 28
13 -46 -52
-43 -3 -26
25 -35 -40
-13 -43 -27
-44 -58 21
33 -20 -9
4 11 50
55 21 -36
60 -19 -43
20 54 -33
-44 -1 -16
30 -60 46
41 35 -51
-60 29 -45
55 7 21
-9 2 35
-32 -34 -51
5 -37 -42
-29 46 -24
-49 50 44
48 -10 57
12 28 35
20 41 -25
-11 4 -59
-8 -46 27
39 -37 -5
-60 -30 19
22 -26 -19
57 -22 19
-4 15 -59
-10 -43 -48
50 58 59
-43 -19 -45
-4 58 -39
6 18 -20
17 -44 7
48 19 -43
-34 2 -40
-30 -22 -13
15 -37 -16
-32 -31 -2
47 45 -24
49 44 59
-38 -29 -60
-43 60 -3
-40 -53 -32
-35 23 -28
-60 -30 52
-35 -54 -28
-11 -58 5
-25 -12 -6
-42 55 37
56 -53 -31
-23 -9 40
27 -60 -26
-41 54 -23
38 -10 -30
19 -27 -47
-22 -24 45
53 -41 -20
32 31 20
-28 -54 -9
36 11 -5
23 -34 -33
32 -12 -20
9 -25 -2
38 10 19
29 -46 -3
12 -54 -33
-58 37 1
-21 -42 58
52 26 38
-13 10 27
-47 -57 10
57 -30 48
-27 8 -24
21 -14 59
3 -60 22
2 -34 -41
-43 27 -57
-30 -45 -60
-24 -30 -38
33 51 25
-26 -45 29
-7 50 -36
-28 -32 -6
53 -12 -35
-2 -9 28
43 8 -24
-15 36 -16
60 57 -38
-26 -47 8
-42 -44 7
56 -41 -31
-58 11 -1
-18 33 -34
-3 -43 -46
57 10 60
35 32 23
7 -5 15
-23 56 53
9 31 -34
-21 44 14
-33 25 18
-38 46 -45
44 14 -16
-2 54 -32
-53 28 -31
-3 -45 10
5 17 49
-20 34 54
-18 32 -6
27 -3 -45
14 37 -5
