c 3cnf formula
p cnf 60 273
35 57 19
-33 -40 -47
18 -29 25
-37 4 22
43 39 -17
-55 29 -34
-14 -55 -43
28 11 -36
19 -10 1
3 10 41
-29 42 14
-20 -12 -48
28 -46 36
28 16 45
24 -17 42
14 -29 21
-14 -43 2
-38 5 49
22 37 5
59 -11 -31
-31 59 -60
9 -28 -50
26 41 -32
-38 8 49
42 -13 -21
4 1 3
47 -60 54
19 1 -4
60 56 -45
-28 46 36
16 -46 31
-55 43 14
-6 -14 -29
-18 -21 43
10 -1 -53
30 -36 -11
-47 -54 -9
59 45 -36
9 -36 -31
49 -10 -41
-18 -42 -24
-31 -46 51
33 -59 -30
-12 17 -25
21 43 -55
22 -37 23
48 18 42
-57 -38 -19
31 30 9
34 25 -14
-40 -56 54
-23 49 4
28 -54 15
-2 -13 52
28 54 -45
-13 44 -18
23 53 -1
10 4 -5
-3 49 -22
-44 42 18
23 10 35
54 33 30
-42 -2 -6
-42 -13 -34
-52 -18 -42
-38 -23 49
-1 -35 -58
48 34 18
53 58 -37
5 23 10
6 14 39
17 -25 42
49 -41 35
45 47 -28
11 16 45
-17 21 44
-5 -8 37
43 13 -18
57 23 -41
59 -15 51
-58 35 22
-29 55 -43
-37 -53 -1
15 -56 -16
9 -51 28
57 -19 -10
5 -58 4
-23 -5 -57
-37 -57 41
27 16 -30
-15 -33 -51
37 -8 26
51 -59 9
-15 -54 11
-50 -51 -40
-49 -32 10
-30 40 -15
-28 -30 -59
60 -40 -15
-52 -25 -20
55 25 52
-39 20 -55
41 37 3
-55 14 -43
15 -54 9
-42 21 -55
13 -2 48
41 -7 -22
13 -55 34
40 -50 27
27 46 60
30 -60 -47
-21 -39 -55
38 -57 -23
29 -55 -48
28 11 -51
-37 -4 49
-14 2 -12
-1 23 -49
-12 39 -21
26 -32 -7
-51 31 -28
27 -54 28
-51 31 47
45 -28 -47
-20 6 -25
27 -51 -16
55 -52 -14
-37 -58 7
60 47 40
-17 6 -24
51 59 -45
-42 21 39
-59 -60 33
-7 -35 37
-36 -9 -16
33 28 -46
19 3 -57
37 -58 35
-26 5 -32
-35 -19 8
47 -28 31
-44 14 55
-12 13 -21
39 -14 -25
35 5 -23
48 34 43
39 44 42
-33 -54 -36
-48 -18 -52
35 49 -22
-54 -45 9
47 54 33
6 -13 -25
20 -52 -17
27 28 16
60 -31 -16
21 43 48
25 -14 6
45 -16 -59
-10 35 38
29 -12 48
13 39 -14
14 43 42
48 18 52
-58 57 -22
47 50 -46
10 22 49
-14 -43 -39
-48 14 -6
2 20 17
22 -38 -1
8 49 -26
47 30 -33
-45 54 51
-54 -46 36
24 -43 -48
-38 1 5
-11 -9 60
47 56 -54
41 19 49
11 -59 46
-55 14 -25
37 -8 -41
23 -5 8
28 54 -16
-60 45 -51
19 5 -35
-11 54 -9
-44 52 17
38 -3 19
-53 -49 -22
-13 39 18
26 5 -4
46 15 51
56 -51 27
7 4 -32
56 15 60
35 41 22
4 -1 -49
47 -15 -60
-38 1 19
-39 18 6
21 14 -2
30 -59 -60
-58 -38 32
30 -31 -28
57 -22 10
37 -26 7
19 -35 -38
39 18 -55
30 28 -31
-12 29 34
31 -9 -59
43 -48 20
26 37 -22
4 26 -23
-17 -6 12
-47 -15 56
54 15 -59
17 -55 34
-18 -21 6
-54 40 -45
32 -26 19
53 -49 -57
-6 -42 29
-22 -5 32
-40 30 45
-53 7 -32
33 54 -9
45 -30 -27
5 38 35
-24 17 -18
-12 29 -20
60 -31 45
17 -48 -2
55 29 -2
9 15 31
55 43 -39
33 40 60
-31 -51 30
-30 -54 51
43 17 -12
-1 53 -3
-60 -9 -54
36 46 15
30 -47 -59
2 18 -48
-26 -3 -8
-13 6 39
-20 -48 -21
-24 -44 18
-13 52 43
-23 -26 -22
-20 -21 -2
28 -47 -30
-22 -23 -38
6 2 -12
40 -36 31
57 -32 35
20 52 18
32 -1 58
-38 -49 5
-23 35 -41
26 -19 49
-10 -5 41
-19 -49 10
-19 -8 3
-26 -35 38
-5 10 22
49 -7 -41
-14 -34 44
55 -48 43
