c 3cnf formula
p cnf 60 273
-18 -29 58
-31 -41 -57
50 -3 43
-2 -58 53
-38 -47 59
43 -36 -17
-4 -26 42
-38 35 40
-53 50 -8
-51 -1 31
29 3 -42
20 -7 33
-60 32 57
-18 -26 2
48 34 14
-58 42 -29
22 33 -11
-41 57 -7
54 -12 -26
-23 9 -33
-35 -47 38
45 -31 -23
-3 4 -37
4 58 53
19 -56 32
5 -3 58
12 -3 42
1 -41 -32
-9 -41 -49
15 59 6
-36 -42 -12
-22 -20 -60
59 -13 -21
-1 31 -7
-40 -25 14
3 -18 -12
-18 43 54
-38 59 -35
-24 -60 -1
-49 1 -9
44 -21 55
-11 -33 57
-4 -12 -3
54 43 -36
58 2 -17
-48 -47 30
-20 -23 24
27 -44 -52
-23 -16 45
59 47 -38
23 7 56
-33 -1 -57
-32 45 -33
11 57 32
-8 43 42
-55 -13 -34
3 -12 -58
52 35 46
-26 -54 17
-19 32 9
34 -21 59
-29 39 12
-10 -34 21
44 48 55
-27 -59 10
39 -43 -36
-58 43 28
-16 32 60
43 42 -50
30 -13 59
-51 60 56
44 47 -21
33 -31 -23
-4 28 -26
-31 -11 -33
-56 -16 -23
11 -23 16
-54 43 42
-46 -30 35
47 -15 -25
-14 -40 -27
-16 49 57
45 -24 20
22 56 -51
-31 60 -11
55 -47 38
-38 -27 -48
-31 -1 -49
-49 60 -11
-38 21 -34
59 55 -52
21 59 -44
-49 -41 -33
39 2 58
60 23 -1
-47 35 55
2 -36 -28
-12 -5 8
-39 37 -43
-18 -53 28
-12 -8 4
27 -13 15
-40 59 -35
32 -24 -49
-10 47 -27
-21 6 -35
-54 43 -53
60 24 22
-44 -55 21
-44 -40 25
-23 22 60
16 49 -9
-20 -1 33
9 -11 57
33 -49 60
28 4 36
59 -27 38
-25 -34 48
-4 39 -18
-1 56 -60
-41 -20 22
29 -2 54
16 -33 -9
28 -50 5
-48 -59 -46
22 7 1
22 49 -23
-18 36 3
-27 -15 -59
32 -11 -33
52 -15 59
34 30 38
-18 -37 -54
21 34 -44
-45 57 23
5 -17 -18
-28 -5 8
52 10 -59
16 19 32
-28 17 -43
8 54 -43
53 39 2
-14 -40 -30
4 -3 -5
-38 -47 -46
58 28 -42
44 46 25
-32 20 -31
-8 29 -43
-6 -30 -21
5 -2 -43
18 -26 -37
30 44 -10
-12 26 -4
-11 -31 -1
57 -9 20
16 51 56
26 58 36
-19 -11 -49
28 -29 -42
-26 -50 -43
1 -56 7
13 46 -52
-22 41 7
1 23 -45
-35 47 10
52 30 48
-53 3 -17
-24 16 -20
-35 34 -47
-9 -20 49
-3 -54 2
-3 -26 -29
-5 28 17
30 -46 -6
-16 -51 1
-2 -42 -29
-55 48 6
-36 18 -54
4 3 -18
-52 6 44
-21 -48 44
-35 -46 -59
17 -39 2
-58 50 3
12 37 -58
-51 57 49
-9 -23 -51
45 19 -20
-53 5 42
48 47 27
-25 47 -55
-19 57 -41
-7 -11 -56
5 42 -28
-35 27 10
-6 14 21
-60 -33 11
-4 28 -58
33 -31 -1
-38 -21 -13
31 9 -60
25 -47 -10
-60 -1 56
50 37 12
-20 9 31
-31 -56 41
46 -27 -55
-48 -27 -10
-45 22 7
-54 -3 2
34 -30 14
31 9 -1
47 40 30
-14 -15 52
17 50 3
-13 -27 -48
57 -60 -20
-20 -60 57
56 -9 -31
55 30 -48
-44 -34 55
40 35 47
19 -41 1
-11 -49 45
28 -39 29
6 -38 46
-27 52 38
-18 -58 -26
-29 3 -2
-59 13 35
40 -13 35
-6 -55 46
-10 -46 -13
44 48 35
50 42 -28
43 -5 -29
53 4 43
12 53 -18
48 38 6
30 -10 -34
-31 45 -57
-60 -56 -16
34 40 -47
-13 38 55
-5 12 58
43 -53 -3
-7 11 -9
51 -22 11
47 -38 -59
33 20 23
25 -13 38
-58 -53 -12
-34 35 -38
-49 -9 -22
-57 1 31
-38 59 10
39 8 2
-34 14 25
-13 -25 -6
6 -48 -13
-8 3 -18
-51 -22 56
24 -41 51
-4 42 -43
58 -8 29
18 36 5
-12 -50 54
-60 -23 -49
58 37 -26
30 47 6
-28 18 -12
-18 4 -26
